pure_adt/tip2015_weird_nat_add3acc_comm13.smt2
(set-logic HORN)
(declare-datatypes ((Nat_376 0)) (((zero_87 ) (succ_85 (p_240 Nat_376)))))
(declare-fun diseqNat_376 (Nat_376 Nat_376) Bool)
(declare-fun p_241 (Nat_376 Nat_376) Bool)
(declare-fun iszero_85 (Nat_376) Bool)
(declare-fun issucc_85 (Nat_376) Bool)
(assert (forall ((x_34815 Nat_376))
	(p_241 x_34815 (succ_85 x_34815))))
(assert (iszero_85 zero_87))
(assert (forall ((x_34817 Nat_376))
	(issucc_85 (succ_85 x_34817))))
(assert (forall ((x_34818 Nat_376))
	(diseqNat_376 zero_87 (succ_85 x_34818))))
(assert (forall ((x_34819 Nat_376))
	(diseqNat_376 (succ_85 x_34819) zero_87)))
(assert (forall ((x_34820 Nat_376) (x_34821 Nat_376))
	(=> (diseqNat_376 x_34820 x_34821)
	    (diseqNat_376 (succ_85 x_34820) (succ_85 x_34821)))))
(declare-fun addacc_10 (Nat_376 Nat_376 Nat_376 Nat_376) Bool)
(assert (forall ((x_34806 Nat_376) (x_34803 Nat_376) (y_1396 Nat_376) (z_1292 Nat_376))
	(=> (addacc_10 x_34806 x_34803 (succ_85 y_1396) z_1292)
	    (addacc_10 x_34806 (succ_85 x_34803) y_1396 z_1292))))
(assert (forall ((x_34808 Nat_376) (x_34804 Nat_376) (z_1292 Nat_376))
	(=> (addacc_10 x_34808 zero_87 x_34804 (succ_85 z_1292))
	    (addacc_10 x_34808 zero_87 (succ_85 x_34804) z_1292))))
(assert (forall ((x_34810 Nat_376))
	(addacc_10 x_34810 zero_87 zero_87 x_34810)))
(assert (forall ((x_34811 Nat_376) (x_34812 Nat_376) (x_34805 Nat_376) (y_1397 Nat_376) (z_1293 Nat_376))
	(=>	(and true
			(diseqNat_376 x_34811 x_34812)
			(addacc_10 x_34811 x_34805 y_1397 z_1293)
			(addacc_10 x_34812 z_1293 y_1397 x_34805))
		false)))
(check-sat)
